&CONTROL
   calculation      = 'relax'
   restart_mode     = 'from_scratch'
   outdir           = './out'
   prefix           = 'tutorial'
/
&SYSTEM
   ecutwfc          = 40.424239707
   degauss          = 0.0146997171
   occcupations     = 'smearing'
   ntyp             = 3
   nat              = 12
   ibrav            = 0
/
&ELECTRONS
/
&IONS
/
&CELL
/

ATOMIC_SPECIES
Ti 47.867 ./pseudos/Ti.pbesol-spn-kjpaw_psl.1.0.0.UPF
Zr 91.224 ./pseudos/Zr.pbesol-spn-kjpaw_psl.1.0.0.UPF
O 15.999 ./pseudos/O.pbesol-n-kjpaw_psl.1.0.0.UPF

K_POINTS automatic
1 1 1  0 0 0

CELL_PARAMETERS angstrom
4.72100000000000 0.00000000000000 0.00000000000000
0.00000000000000 5.74540000000000 0.00000000000000
0.00000000000000 0.00000000000000 5.01400000000000

ATOMIC_POSITIONS angstrom
Ti 0.0000000000 1.8585219920 3.7605000000 
Zr 0.0000000000 3.8868780080 1.2535000000 
O 1.0795982800 2.1869290560 2.0996125000 
O 1.0795982800 3.5584709440 4.6066125000 
O 1.2809017200 0.6857709440 4.6066125000 
O 1.2809017200 5.0596290560 2.0996125000 
Ti 2.3605000000 1.0141780080 1.2535000000 
Zr 2.3605000000 4.7312219920 3.7605000000 
O 3.4400982800 0.6857709440 2.9143875000 
O 3.4400982800 5.0596290560 0.4073875000 
O 3.6414017200 2.1869290560 0.4073875000 
O 3.6414017200 3.5584709440 2.9143875000 

